Sat 19 May 19:35:38 CEST 2018
CPXPARAM_TimeLimit                               45
CPXPARAM_Threads                                 1
CPXPARAM_MIP_Strategy_CallbackReducedLP          0
Tried aggregator 11 times.
MIP Presolve eliminated 12078 rows and 8041 columns.
MIP Presolve modified 5372 coefficients.
Aggregator did 9822 substitutions.
Reduced MIP has 17465 rows, 16696 columns, and 46144 nonzeros.
Reduced MIP has 15393 binaries, 13 generals, 0 SOSs, and 3304 indicators.
Presolve time = 0.28 sec. (583.18 ticks)
Probing time = 0.21 sec. (136.94 ticks)
Tried aggregator 7 times.
Aggregator did 8663 substitutions.
Reduced MIP has 8802 rows, 8033 columns, and 28818 nonzeros.
Reduced MIP has 6730 binaries, 1303 generals, 0 SOSs, and 3304 indicators.
Presolve time = 0.08 sec. (128.97 ticks)
Probing time = 0.13 sec. (114.01 ticks)
Tried aggregator 1 time.
Reduced MIP has 8802 rows, 8033 columns, and 28818 nonzeros.
Reduced MIP has 6730 binaries, 1303 generals, 0 SOSs, and 3304 indicators.
Presolve time = 0.02 sec. (25.72 ticks)
Probing time = 0.01 sec. (7.71 ticks)
Clique table members: 451225.
MIP emphasis: balance optimality and feasibility.
MIP search method: dynamic search.
Parallel mode: none, using 1 thread.
Root relaxation solution time = 0.09 sec. (164.01 ticks)

        Nodes                                         Cuts/
   Node  Left     Objective  IInf  Best Integer    Best Bound    ItCnt     Gap

      0     0        0.0000  3175                      0.0000     1212         
      0     0        0.0000  2791               Cliques: 2300     1742         
      0     0        0.0000  2397               Cliques: 2300     2197         
      0     0        0.0000  2427               Cliques: 2300     2720         
      0     0        0.0000  2197               Cliques: 2300     3050         
      0     0        0.0000  1977               Cliques: 2300     3391         
      0     0        0.0000  1747               Cliques: 2300     3674         

Clique cuts applied:  11529

Root node processing (before b&c):
  Real time             =   45.33 sec. (53176.92 ticks)
Sequential b&c:
  Real time             =    0.00 sec. (0.00 ticks)
                          ------------
Total (root+branch&cut) =   45.33 sec. (53176.92 ticks)
